(set-info :source  loris-7.ddns.comp.nus.edu.sg/~project/hip/) 
;Variables declarations
(declare-fun Anon_2549 () Int)
(declare-fun Anon_2528 () Int)
(declare-fun n2_2548 () Int)
(declare-fun m2_2547 () Int)
(declare-fun Anon_2545 () Int)
(declare-fun Anon_2524 () Int)
(declare-fun n1_2544 () Int)
(declare-fun m1_2543 () Int)
(declare-fun q_2546 () Int)
(declare-fun q_2525 () Int)
(declare-fun p_2542 () Int)
(declare-fun p_2521 () Int)
(declare-fun Anon_2541 () Int)
(declare-fun Anon_2520 () Int)
(declare-fun m () Int)
(declare-fun m2_2526 () Int)
(declare-fun m1_2522 () Int)
(declare-fun b () Int)
(declare-fun n2_2527 () Int)
(declare-fun n1_2523 () Int)
(declare-fun n () Int)
(declare-fun v_bool_48_2312_primed () Int)
(declare-fun x_primed () Int)
(declare-fun x () Int)
(declare-fun n_2519 () Int)
(declare-fun res () Int)
(declare-fun v_int_51_2311_primed () Int)
;Relations declarations
;Axioms assertions
;Antecedent
(assert (= Anon_2549 Anon_2528))
(assert (= n2_2548 n2_2527))
(assert (= m2_2547 m2_2526))
(assert (= Anon_2545 Anon_2524))
(assert (= n1_2544 n1_2523))
(assert (= m1_2543 m1_2522))
(assert (= q_2546 q_2525))
(assert (= p_2542 p_2521))
(assert (= Anon_2541 Anon_2520))
(assert (= m (+ (+ m2_2526 1) m1_2522)))
(assert (exists ((max_79 Int)) (and (= n (+ max_79 1)) (or (and (= max_79 n1_2523) (>= n1_2523 n2_2527)) (and (= max_79 n2_2527) (< n1_2523 n2_2527))))))
(assert (<= (+ 0 n2_2527) (+ n1_2523 1)))
(assert (<= n1_2523 (+ 1 n2_2527)))
(assert (= (+ b n2_2527) (+ 1 n1_2523)))
(assert (= n_2519 n))
(assert (not (> v_bool_48_2312_primed 0)))
(assert (> x_primed 0))
(assert (= x_primed x))
(assert (= v_int_51_2311_primed n_2519))
(assert (= res v_int_51_2311_primed))
;Negation of Consequence
(assert (not false))
(check-sat)